sat
((prim_1_1 5))
((prim_1_2 12))
((prim_1_3 1))
((prim_1_4 1))
((prim_1_5 1))
((prim_1_6 1))
((prim_1_7 4))
((prim_1_8 33))
((prim_1_9 30))
((prim_1_10 5))
((prim_1_11 15))
((prim_1_12 12))
((prim_1_13 1))
((prim_1_14 2))
((prim_1_15 16))
((prim_1_16 1))
((prim_1_17 2))
((prim_1_18 18))
((prim_1_19 16))
((prim_1_20 1))
((prim_1_21 1))
((prim_1_22 4))
((prim_1_23 30))
((prim_1_24 1))
((prim_1_25 2))
((prim_1_26 16))
((prim_2_1 4))
((prim_2_2 30))
((prim_2_3 1))
((prim_2_4 1))
((prim_2_5 1))
((prim_2_6 1))
((prim_2_7 4))
((prim_2_8 30))
((prim_2_9 1))
((prim_2_10 1))
((prim_2_11 5))
((prim_2_12 12))
((prim_2_13 1))
((prim_2_14 2))
((prim_2_15 16))
((prim_2_16 1))
((prim_2_17 2))
((prim_2_18 18))
((prim_2_19 16))
((prim_2_20 1))
((prim_2_21 1))
((prim_2_22 5))
((prim_2_23 12))
((prim_2_24 1))
((prim_2_25 2))
((prim_2_26 16))
((prim_3_1 4))
((prim_3_2 30))
((prim_3_3 2))
((prim_3_4 16))
((prim_3_5 3))
((prim_3_6 20))
((prim_3_7 4))
((prim_3_8 30))
((prim_3_9 1))
((prim_3_10 1))
((prim_3_11 5))
((prim_3_12 12))
((prim_3_13 2))
((prim_3_14 18))
((prim_3_15 16))
((prim_3_16 1))
((prim_3_17 2))
((prim_3_18 16))
((prim_3_19 1))
((prim_3_20 1))
((prim_3_21 1))
((prim_3_22 5))
((prim_3_23 12))
((prim_3_24 2))
((prim_3_25 16))
((prim_3_26 1))
((prim_4_1 5))
((prim_4_2 12))
((prim_4_3 2))
((prim_4_4 16))
((prim_4_5 3))
((prim_4_6 20))
((prim_4_7 4))
((prim_4_8 33))
((prim_4_9 30))
((prim_4_10 5))
((prim_4_11 15))
((prim_4_12 12))
((prim_4_13 2))
((prim_4_14 18))
((prim_4_15 16))
((prim_4_16 1))
((prim_4_17 2))
((prim_4_18 16))
((prim_4_19 1))
((prim_4_20 1))
((prim_4_21 1))
((prim_4_22 4))
((prim_4_23 30))
((prim_4_24 2))
((prim_4_25 16))
((prim_4_26 1))
((x_1_1 0))
((x_1_2 0))
((x_1_3 0))
((x_1_4 0))
((x_1_5 0))
((x_1_6 0))
((x_1_7 0))
((x_1_8 0))
((x_1_9 0))
((x_1_10 0))
((x_1_11 0))
((x_1_12 0))
((x_1_13 0))
((x_1_14 0))
((x_1_15 2))
((x_1_16 4))
((x_1_17 4))
((x_1_18 6))
((x_1_19 10))
((x_1_20 12))
((x_1_21 12))
((x_1_22 12))
((x_1_23 12))
((x_1_24 12))
((x_1_25 12))
((x_1_26 14))
((x_1_27 16))
((x_2_1 0))
((x_2_2 0))
((x_2_3 0))
((x_2_4 0))
((x_2_5 0))
((x_2_6 0))
((x_2_7 0))
((x_2_8 0))
((x_2_9 0))
((x_2_10 0))
((x_2_11 0))
((x_2_12 0))
((x_2_13 0))
((x_2_14 0))
((x_2_15 2))
((x_2_16 4))
((x_2_17 4))
((x_2_18 6))
((x_2_19 10))
((x_2_20 12))
((x_2_21 12))
((x_2_22 12))
((x_2_23 12))
((x_2_24 12))
((x_2_25 12))
((x_2_26 14))
((x_2_27 16))
((x_3_1 2))
((x_3_2 2))
((x_3_3 2))
((x_3_4 4))
((x_3_5 6))
((x_3_6 4))
((x_3_7 2))
((x_3_8 2))
((x_3_9 2))
((x_3_10 2))
((x_3_11 2))
((x_3_12 2))
((x_3_13 2))
((x_3_14 4))
((x_3_15 8))
((x_3_16 10))
((x_3_17 10))
((x_3_18 12))
((x_3_19 14))
((x_3_20 14))
((x_3_21 14))
((x_3_22 14))
((x_3_23 14))
((x_3_24 14))
((x_3_25 16))
((x_3_26 18))
((x_3_27 18))
((x_4_1 2))
((x_4_2 2))
((x_4_3 2))
((x_4_4 4))
((x_4_5 6))
((x_4_6 4))
((x_4_7 2))
((x_4_8 2))
((x_4_9 2))
((x_4_10 2))
((x_4_11 2))
((x_4_12 2))
((x_4_13 2))
((x_4_14 4))
((x_4_15 8))
((x_4_16 10))
((x_4_17 10))
((x_4_18 12))
((x_4_19 14))
((x_4_20 14))
((x_4_21 14))
((x_4_22 14))
((x_4_23 14))
((x_4_24 14))
((x_4_25 16))
((x_4_26 18))
((x_4_27 18))
((y_1_1 8))
((y_1_2 6))
((y_1_3 4))
((y_1_4 4))
((y_1_5 4))
((y_1_6 4))
((y_1_7 4))
((y_1_8 6))
((y_1_9 10))
((y_1_10 12))
((y_1_11 10))
((y_1_12 6))
((y_1_13 4))
((y_1_14 4))
((y_1_15 4))
((y_1_16 4))
((y_1_17 4))
((y_1_18 4))
((y_1_19 4))
((y_1_20 4))
((y_1_21 4))
((y_1_22 4))
((y_1_23 6))
((y_1_24 8))
((y_1_25 8))
((y_1_26 8))
((y_1_27 8))
((y_2_1 10))
((y_2_2 12))
((y_2_3 14))
((y_2_4 14))
((y_2_5 14))
((y_2_6 14))
((y_2_7 14))
((y_2_8 16))
((y_2_9 18))
((y_2_10 18))
((y_2_11 18))
((y_2_12 16))
((y_2_13 14))
((y_2_14 14))
((y_2_15 14))
((y_2_16 14))
((y_2_17 14))
((y_2_18 14))
((y_2_19 14))
((y_2_20 14))
((y_2_21 14))
((y_2_22 14))
((y_2_23 12))
((y_2_24 10))
((y_2_25 10))
((y_2_26 10))
((y_2_27 10))
((y_3_1 10))
((y_3_2 12))
((y_3_3 14))
((y_3_4 14))
((y_3_5 14))
((y_3_6 14))
((y_3_7 14))
((y_3_8 16))
((y_3_9 18))
((y_3_10 18))
((y_3_11 18))
((y_3_12 16))
((y_3_13 14))
((y_3_14 14))
((y_3_15 14))
((y_3_16 14))
((y_3_17 14))
((y_3_18 14))
((y_3_19 14))
((y_3_20 14))
((y_3_21 14))
((y_3_22 14))
((y_3_23 12))
((y_3_24 10))
((y_3_25 10))
((y_3_26 10))
((y_3_27 10))
((y_4_1 8))
((y_4_2 6))
((y_4_3 4))
((y_4_4 4))
((y_4_5 4))
((y_4_6 4))
((y_4_7 4))
((y_4_8 6))
(error "line 2431297 column 1: invalid command, symbol expected")
